Route #1: 33 25 6 22 38 43 12 11
Route #2: 14 44 39 37 3 15 10 41 42
Route #3: 8 16 29 35 18 30 4 40 7 13 26 24 21
Route #4: 23 31 36 19 17 2
Route #5: 28 20 27 34
Route #6: 1 5 32 9
cost 1748.835293163354
